[1, 2, 3, 4, 5, 6, 7, 8, 9, 10, 11, 12, 13, 14, 15, 16, 17, 18, 19, 20, 21, 22, 23, 24, 25, 26, 27, 28, 29, 30, 229, 40, 49, 38, 35, 37, 36, 40, 39, 38, 48, 42, 41, 40, 39, 46, 47, 48, 45, 46, 43, 47, 53, 54, 55, 57, 56, 58, 59, 59, 57, 59, 65, 62, 60, 59, 78, 79, 72, 70, 71, 73, 72, 74, 75, 76, 77, 78, 77, 79, 81, 82, 82, 85, 84, 88, 87, 88, 88, 89, 91, 93, 93, 94, 95, 96, 99, 102, 100, 101, 99, 94, 103, 104, 105, 112, 114, 104, 109, 110, 110, 114, 115, 112, 116, 115, 117, 118, 119, 120, 121, 123, 123, 124, 124, 126, 127, 127, 129, 130, 131, 133, 132, 139, 140, 139, 137, 136, 140, 139, 141, 141, 142, 146, 145, 144, 147, 147, 149, 152, 151, 150, 151, 159, 158, 160, 159, 158, 157, 160, 161, 162, 164, 163, 165, 171, 170, 168, 167, 172, 166, 172, 173, 175, 176, 176, 177, 180, 179, 181, 180, 181, 180, 185, 186, 187, 187, 188, 189, 190, 191, 192, 192, 194, 195, 196, 197, 198, 198, 200, 202, 207, 213, 210, 214, 207, 207, 208, 209, 210, 212, 213, 211, 215, 217, 218, 220, 219, 215, 216, 217, 218, 224, 225, 234, 235, 236, 232, 232, 232, 231, 232, 235, 234, 233, 236, 238, 238, 240, 240, 241, 242, 243, 244, 245, 246, 247, 251, 251, 250, 249, 252, 253, 254, 256, 258, 257, 255, 257, 260, 261, 262, 263, 265, 265, 266, 267, 268, 269, 271, 271, 272, 275, 273, 274, 276, 277, 278, 279, 188]
[1, 2, 3, 4, 5, 6, 7, 8, 9, 10, 11, 12, 13, 14, 15, 16, 17, 18, 19, 20, 21, 22, 23, 24, 25, 26, 27, 28, 29, 108, 257]
